NAME: concorde91
TYPE: TSP
DIMENSION: 60 
EDGE_WEIGHT_TYPE: EUC_2D
NODE_COORD_SECTION
1 67 26
2 75 17
3 44 40
4 11 54
5 68 24
6 73 37
7 48 58
8 17 21
9 68 80
10 26 64
11 34 74
12 21 44
13 1 58
14 38 25
15 56 46
16 68 17
17 75 62
18 95 96
19 16 48
20 32 75
21 13 2
22 64 17
23 33 64
24 65 16
25 30 35
26 7 18
27 66 90
28 76 24
29 55 99
30 54 2
31 85 10
32 65 24
33 96 72
34 62 3
35 49 55
36 98 68
37 49 30
38 66 39
39 60 73
40 95 97
41 37 76
42 88 58
43 45 46
44 50 35
45 46 38
46 62 20
47 61 14
48 79 39
49 56 26
50 77 71
51 40 41
52 51 26
53 52 40
54 100 19
55 43 83
56 100 53
57 79 39
58 52 57
59 50 98
60 92 65
